71
0 30 26 9 23 6 25 50 58 39 
41 12 55 8 11 21 7 2 34 63 
56 69 49 29 66 45 37 57 24 53 
59 1 61 46 68 42 10 5 65 38 
44 64 51 60 47 35 62 22 16 15 
48 14 52 19 27 28 43 20 18 33 
4 67 31 36 40 13 70 54 32 17 
3 
